unknown
(model
; cardinality of BoundSet is 3
(declare-sort BoundSet 0)
; rep: @uc_BoundSet_0
; rep: @uc_BoundSet_1
; rep: @uc_BoundSet_2
; cardinality of UnboundSet is 1
(declare-sort UnboundSet 0)
(declare-fun groundTerm_4 () UnboundSet)
(define-fun IsYoung ((BOUND_VARIABLE_453 BoundSet)) Bool true)
(define-fun IsOutside ((BOUND_VARIABLE_453 BoundSet)) Bool true)
(define-fun IsInRubble ((BOUND_VARIABLE_453 BoundSet)) Bool true)
(define-fun IsSitting ((BOUND_VARIABLE_453 BoundSet)) Bool false)
(define-fun IsOnGround ((BOUND_VARIABLE_453 BoundSet)) Bool false)
)
sat
(model
; cardinality of BoundSet is 1
(declare-sort BoundSet 0)
; rep: @uc_BoundSet_0
; cardinality of UnboundSet is 1
(declare-sort UnboundSet 0)
(declare-fun groundTerm_7 () UnboundSet)
(define-fun IsYoung ((BOUND_VARIABLE_487 BoundSet)) Bool true)
(define-fun IsOutside ((BOUND_VARIABLE_487 BoundSet)) Bool true)
(define-fun IsInRubble ((BOUND_VARIABLE_487 BoundSet)) Bool true)
(define-fun IsSitting ((BOUND_VARIABLE_487 BoundSet)) Bool false)
(define-fun IsOnGround ((BOUND_VARIABLE_487 BoundSet)) Bool false)
)
